************************************************************************
file with basedata            : mm56_.bas
initial value random generator: 363759672
************************************************************************
projects                      :  1
jobs (incl. supersource/sink ):  12
horizon                       :  84
RESOURCES
  - renewable                 :  2   R
  - nonrenewable              :  2   N
  - doubly constrained        :  0   D
************************************************************************
PROJECT INFORMATION:
pronr.  #jobs rel.date duedate tardcost  MPM-Time
    1     10      0       14        1       14
************************************************************************
PRECEDENCE RELATIONS:
jobnr.    #modes  #successors   successors
   0        1          3           1   2   3
   1        3          3           4   7   8
   2        3          2           9  10
   3        3          2           4   8
   4        3          1           5
   5        3          1           6
   6        3          2           9  10
   7        3          1           9
   8        3          1          11
   9        3          1          11
  10        3          1          11
  11        1          0        
************************************************************************
REQUESTS/DURATIONS:
jobnr. mode duration  R 1  R 2  R 3  R 4  E(W 1)  E(W 2)  E(W 3)
------------------------------------------------------------------------
  0      1     0       0    0    0    0     0       0       0
  1      1     3       9    9    8   10    54      24      30
  2      1     2       7    9    9    8    32      18      16
  3      1     6       9    5    5    4    84      30      24
  4      1     2       5    6    9    7    22      18      14
  5      1     2       1    8    7    7    20      14      14
  6      1     3       6    5    8    7    33      24      21
  7      1     9       7    8    5    7    135      45      63
  8      1     3       8    6    9    9    42      27      27
  9      1     1       5    5    3    5    10       3       5
 10      1     1       6    9    9   10    15       9      10
 11      1     0       0    0    0    0     0       0       0
************************************************************************
RESOURCEAVAILABILITIES:
  R 1  R 2  R 3
   39   72   74
************************************************************************
RESOURCE LIMITS:
jobnr.  l(R 1)  u(R 1)  l(R 2)  u(R 2)  l(R 3)  u(R 3)
------------------------------------------------------------------------
  0        0       0       0       0       0       0
  1       10      18       4       8       5      10
  2        9      16       5       9       4       8
  3        8      14       3       5       2       4
  4        6      11       5       9       4       7
  5        5      10       4       7       4       7
  6        6      11       4       8       4       7
  7        8      15       3       5       4       7
  8        7      14       5       9       5       9
  9        6      10       2       3       3       5
 10        8      15       5       9       5      10
 11        0       0       0       0       0       0
************************************************************************
SCENARIOS:
------------------------------------------------------------------------
RESOURCE k = 1
s = 1: (0, 88, 42, 90, 34, 20, 22, 107, 48, 13, 12, 0)
s = 2: (0, 37, 36, 102, 20, 27, 50, 80, 49, 9, 18, 0)
s = 3: (0, 41, 50, 122, 16, 13, 46, 127, 36, 15, 12, 0)
s = 4: (0, 48, 28, 95, 17, 19, 42, 164, 52, 7, 15, 0)
s = 5: (0, 52, 24, 63, 13, 17, 37, 137, 39, 9, 14, 0)
s = 6: (0, 53, 25, 63, 23, 18, 44, 122, 54, 12, 13, 0)
s = 7: (0, 80, 35, 53, 17, 14, 37, 121, 31, 12, 13, 0)
s = 8: (0, 77, 26, 107, 20, 22, 36, 174, 31, 10, 18, 0)
s = 9: (0, 38, 25, 68, 31, 13, 42, 111, 79, 6, 14, 0)
s = 10: (0, 55, 34, 49, 29, 19, 43, 178, 46, 12, 9, 0)
s = 11: (0, 39, 31, 64, 20, 16, 31, 137, 33, 17, 14, 0)
s = 12: (0, 33, 25, 91, 14, 18, 31, 210, 53, 11, 12, 0)
s = 13: (0, 50, 40, 137, 13, 27, 33, 91, 63, 7, 25, 0)
s = 14: (0, 72, 32, 122, 28, 15, 39, 120, 50, 12, 13, 0)
s = 15: (0, 48, 22, 89, 19, 22, 53, 136, 55, 11, 18, 0)
s = 16: (0, 69, 32, 142, 18, 15, 34, 119, 36, 9, 14, 0)
s = 17: (0, 61, 35, 86, 14, 16, 31, 135, 40, 9, 18, 0)
s = 18: (0, 62, 23, 68, 19, 33, 30, 140, 45, 15, 17, 0)
s = 19: (0, 68, 34, 84, 16, 23, 20, 126, 40, 10, 16, 0)
s = 20: (0, 49, 26, 58, 22, 11, 28, 110, 57, 16, 18, 0)
s = 21: (0, 63, 21, 76, 15, 21, 44, 193, 30, 14, 12, 0)
s = 22: (0, 35, 26, 86, 22, 18, 23, 155, 47, 10, 16, 0)
s = 23: (0, 45, 55, 79, 20, 22, 31, 130, 37, 9, 16, 0)
s = 24: (0, 36, 31, 70, 20, 18, 25, 128, 25, 7, 12, 0)
s = 25: (0, 35, 39, 83, 21, 18, 45, 110, 60, 8, 10, 0)
s = 26: (0, 71, 45, 99, 23, 19, 34, 109, 46, 7, 13, 0)
s = 27: (0, 61, 41, 55, 19, 24, 40, 142, 48, 18, 17, 0)
s = 28: (0, 31, 29, 92, 17, 26, 19, 96, 45, 11, 9, 0)
s = 29: (0, 36, 24, 88, 31, 20, 43, 141, 32, 9, 23, 0)
s = 30: (0, 52, 21, 82, 19, 27, 41, 156, 28, 10, 10, 0)
s = 31: (0, 52, 28, 131, 15, 29, 20, 135, 31, 8, 21, 0)
s = 32: (0, 55, 62, 103, 32, 21, 41, 127, 57, 19, 15, 0)
s = 33: (0, 95, 20, 99, 22, 21, 40, 96, 39, 16, 14, 0)
s = 34: (0, 43, 49, 89, 29, 16, 42, 76, 28, 14, 17, 0)
s = 35: (0, 56, 46, 49, 15, 15, 33, 132, 49, 13, 12, 0)
s = 36: (0, 52, 27, 99, 28, 12, 36, 106, 42, 6, 11, 0)
s = 37: (0, 44, 28, 112, 33, 33, 25, 126, 45, 10, 13, 0)
s = 38: (0, 69, 31, 65, 35, 14, 30, 81, 33, 10, 13, 0)
s = 39: (0, 63, 22, 113, 20, 11, 27, 121, 46, 10, 9, 0)
s = 40: (0, 41, 27, 54, 16, 27, 68, 97, 26, 11, 11, 0)
s = 41: (0, 47, 25, 79, 14, 26, 45, 174, 56, 8, 15, 0)
s = 42: (0, 66, 41, 61, 18, 30, 23, 109, 35, 6, 27, 0)
s = 43: (0, 60, 48, 92, 31, 15, 30, 125, 47, 10, 15, 0)
s = 44: (0, 48, 19, 83, 18, 21, 32, 89, 46, 8, 22, 0)
s = 45: (0, 57, 27, 104, 22, 22, 28, 121, 32, 10, 13, 0)
s = 46: (0, 42, 29, 103, 15, 24, 31, 193, 35, 8, 11, 0)
s = 47: (0, 85, 38, 112, 31, 13, 32, 85, 52, 9, 9, 0)
s = 48: (0, 60, 44, 106, 19, 17, 50, 147, 30, 13, 16, 0)
s = 49: (0, 57, 24, 88, 18, 25, 57, 136, 53, 9, 13, 0)
s = 50: (0, 58, 26, 138, 26, 17, 43, 193, 29, 13, 11, 0)
s = 51: (0, 76, 35, 88, 14, 18, 35, 148, 49, 10, 20, 0)
s = 52: (0, 72, 30, 84, 30, 15, 42, 98, 28, 6, 28, 0)
s = 53: (0, 35, 27, 54, 13, 22, 41, 151, 56, 6, 19, 0)
s = 54: (0, 53, 39, 89, 29, 15, 35, 78, 44, 10, 10, 0)
s = 55: (0, 51, 25, 114, 15, 30, 50, 158, 43, 7, 14, 0)
s = 56: (0, 66, 38, 67, 24, 20, 60, 100, 80, 9, 10, 0)
s = 57: (0, 57, 48, 94, 22, 20, 31, 95, 47, 8, 17, 0)
s = 58: (0, 36, 22, 63, 13, 14, 18, 189, 29, 8, 29, 0)
s = 59: (0, 63, 21, 69, 30, 14, 29, 188, 35, 7, 8, 0)
s = 60: (0, 62, 23, 71, 20, 22, 33, 173, 34, 9, 13, 0)
s = 61: (0, 53, 22, 101, 27, 21, 47, 94, 59, 13, 17, 0)
s = 62: (0, 71, 41, 97, 21, 13, 36, 108, 25, 11, 11, 0)
s = 63: (0, 69, 43, 112, 18, 15, 31, 128, 59, 11, 16, 0)
s = 64: (0, 62, 21, 105, 27, 12, 38, 127, 71, 8, 12, 0)
s = 65: (0, 36, 45, 64, 21, 12, 33, 166, 29, 7, 10, 0)
s = 66: (0, 50, 36, 58, 37, 20, 48, 119, 56, 12, 12, 0)
s = 67: (0, 47, 32, 70, 24, 24, 21, 170, 49, 8, 11, 0)
s = 68: (0, 37, 33, 125, 21, 17, 50, 115, 47, 8, 13, 0)
s = 69: (0, 82, 19, 82, 23, 13, 34, 174, 43, 10, 16, 0)
s = 70: (0, 50, 23, 87, 23, 26, 44, 134, 58, 8, 24, 0)
s = 71: (0, 53, 27, 123, 30, 19, 32, 89, 27, 8, 13, 0)
s = 72: (0, 79, 31, 87, 15, 18, 23, 172, 48, 8, 23, 0)
s = 73: (0, 68, 38, 93, 20, 37, 30, 121, 35, 16, 13, 0)
s = 74: (0, 29, 40, 120, 33, 27, 42, 89, 57, 8, 15, 0)
s = 75: (0, 60, 36, 107, 21, 20, 25, 149, 50, 11, 14, 0)
s = 76: (0, 39, 26, 100, 19, 19, 20, 157, 42, 12, 19, 0)
s = 77: (0, 38, 43, 66, 15, 24, 37, 130, 37, 13, 13, 0)
s = 78: (0, 41, 29, 50, 24, 18, 32, 203, 56, 12, 13, 0)
s = 79: (0, 56, 25, 116, 18, 13, 28, 162, 25, 11, 16, 0)
s = 80: (0, 81, 43, 116, 14, 27, 48, 87, 33, 7, 15, 0)
s = 81: (0, 78, 22, 84, 18, 16, 32, 127, 46, 13, 10, 0)
s = 82: (0, 76, 18, 83, 26, 18, 42, 151, 46, 7, 20, 0)
s = 83: (0, 83, 22, 55, 25, 20, 37, 146, 29, 11, 10, 0)
s = 84: (0, 70, 25, 63, 25, 18, 42, 82, 30, 12, 15, 0)
s = 85: (0, 39, 40, 57, 20, 12, 29, 178, 43, 10, 17, 0)
s = 86: (0, 55, 34, 122, 21, 17, 27, 129, 48, 9, 18, 0)
s = 87: (0, 80, 24, 129, 25, 15, 31, 111, 29, 10, 17, 0)
s = 88: (0, 67, 40, 59, 29, 24, 30, 132, 37, 9, 14, 0)
s = 89: (0, 38, 35, 107, 27, 28, 45, 89, 46, 8, 15, 0)
s = 90: (0, 74, 24, 71, 31, 19, 28, 144, 26, 7, 13, 0)
s = 91: (0, 41, 22, 86, 19, 23, 19, 79, 38, 13, 21, 0)
s = 92: (0, 32, 40, 89, 13, 17, 34, 91, 23, 16, 13, 0)
s = 93: (0, 56, 25, 75, 14, 19, 29, 256, 53, 12, 30, 0)
s = 94: (0, 50, 44, 64, 25, 29, 34, 100, 34, 8, 13, 0)
s = 95: (0, 75, 44, 78, 35, 12, 18, 144, 64, 20, 12, 0)
s = 96: (0, 58, 22, 63, 23, 25, 27, 152, 39, 9, 10, 0)
s = 97: (0, 52, 36, 65, 14, 22, 38, 88, 31, 10, 15, 0)
s = 98: (0, 44, 24, 91, 19, 22, 38, 167, 44, 10, 17, 0)
s = 99: (0, 37, 22, 97, 38, 21, 24, 201, 52, 11, 11, 0)
s = 100: (0, 62, 33, 55, 28, 17, 26, 111, 62, 8, 19, 0)
s = 101: (0, 46, 34, 79, 36, 23, 32, 149, 54, 11, 13, 0)
s = 102: (0, 40, 27, 88, 22, 17, 39, 194, 31, 12, 12, 0)
s = 103: (0, 33, 22, 50, 26, 14, 30, 179, 42, 16, 15, 0)
s = 104: (0, 40, 28, 114, 21, 21, 40, 130, 35, 13, 14, 0)
s = 105: (0, 74, 45, 103, 18, 12, 28, 121, 24, 7, 9, 0)
s = 106: (0, 59, 23, 86, 30, 28, 38, 90, 39, 9, 17, 0)
s = 107: (0, 58, 36, 130, 37, 25, 29, 181, 28, 9, 17, 0)
s = 108: (0, 66, 27, 56, 20, 26, 27, 119, 72, 10, 14, 0)
s = 109: (0, 39, 31, 58, 23, 31, 20, 195, 51, 7, 15, 0)
s = 110: (0, 45, 28, 74, 16, 19, 41, 157, 45, 10, 20, 0)
s = 111: (0, 44, 34, 100, 23, 18, 35, 129, 26, 12, 14, 0)
s = 112: (0, 65, 27, 117, 19, 16, 46, 174, 36, 15, 13, 0)
s = 113: (0, 79, 22, 73, 18, 18, 20, 90, 38, 7, 15, 0)
s = 114: (0, 64, 35, 87, 28, 17, 40, 122, 28, 14, 14, 0)
s = 115: (0, 59, 37, 52, 22, 17, 28, 120, 30, 14, 16, 0)
s = 116: (0, 35, 29, 72, 22, 21, 25, 87, 64, 12, 13, 0)
s = 117: (0, 87, 36, 134, 24, 14, 30, 79, 55, 6, 20, 0)
s = 118: (0, 104, 32, 89, 26, 21, 26, 99, 51, 10, 11, 0)
s = 119: (0, 59, 30, 60, 23, 28, 31, 175, 26, 10, 8, 0)
s = 120: (0, 37, 36, 154, 27, 19, 38, 78, 57, 15, 15, 0)
s = 121: (0, 50, 24, 48, 31, 30, 24, 107, 56, 10, 24, 0)
s = 122: (0, 41, 47, 80, 18, 13, 41, 140, 34, 9, 19, 0)
s = 123: (0, 54, 29, 59, 16, 16, 50, 122, 58, 16, 14, 0)
s = 124: (0, 40, 35, 85, 34, 18, 30, 185, 29, 11, 21, 0)
s = 125: (0, 41, 29, 94, 23, 19, 53, 113, 34, 9, 17, 0)
s = 126: (0, 52, 46, 87, 22, 18, 32, 123, 37, 8, 21, 0)
s = 127: (0, 53, 40, 94, 30, 21, 40, 99, 35, 10, 20, 0)
s = 128: (0, 48, 31, 95, 34, 17, 62, 83, 46, 16, 13, 0)
s = 129: (0, 58, 42, 54, 34, 22, 49, 117, 37, 15, 15, 0)
s = 130: (0, 56, 32, 104, 34, 15, 33, 115, 41, 9, 9, 0)
s = 131: (0, 75, 47, 58, 24, 18, 28, 140, 58, 10, 13, 0)
s = 132: (0, 37, 40, 127, 18, 16, 23, 178, 47, 14, 11, 0)
s = 133: (0, 84, 34, 66, 18, 21, 41, 153, 43, 10, 14, 0)
s = 134: (0, 37, 35, 72, 33, 18, 27, 77, 40, 13, 10, 0)
s = 135: (0, 42, 27, 74, 21, 23, 32, 130, 27, 14, 16, 0)
s = 136: (0, 67, 32, 107, 17, 27, 19, 112, 48, 16, 22, 0)
s = 137: (0, 65, 24, 66, 35, 26, 28, 121, 34, 7, 16, 0)
s = 138: (0, 65, 33, 99, 19, 32, 37, 222, 38, 8, 13, 0)
s = 139: (0, 97, 21, 88, 25, 18, 26, 169, 30, 10, 15, 0)
s = 140: (0, 47, 35, 95, 15, 28, 34, 135, 31, 8, 21, 0)
s = 141: (0, 48, 31, 111, 23, 15, 42, 89, 49, 9, 28, 0)
s = 142: (0, 42, 28, 80, 20, 19, 37, 111, 38, 14, 15, 0)
s = 143: (0, 59, 21, 69, 20, 17, 33, 85, 37, 12, 15, 0)
s = 144: (0, 82, 22, 110, 24, 21, 29, 169, 25, 9, 21, 0)
s = 145: (0, 58, 23, 74, 25, 24, 39, 167, 48, 6, 17, 0)
s = 146: (0, 53, 45, 72, 20, 23, 36, 94, 35, 13, 18, 0)
s = 147: (0, 55, 34, 96, 34, 21, 25, 174, 61, 10, 9, 0)
s = 148: (0, 39, 30, 87, 21, 18, 39, 157, 33, 9, 10, 0)
s = 149: (0, 53, 25, 94, 24, 20, 27, 195, 35, 9, 13, 0)
s = 150: (0, 62, 25, 96, 16, 11, 46, 141, 33, 7, 12, 0)
s = 151: (0, 33, 36, 109, 22, 22, 43, 143, 81, 10, 8, 0)
s = 152: (0, 35, 27, 150, 20, 12, 40, 117, 32, 12, 15, 0)
s = 153: (0, 73, 27, 55, 30, 14, 50, 167, 42, 11, 17, 0)
s = 154: (0, 56, 34, 70, 23, 13, 28, 203, 38, 11, 13, 0)
s = 155: (0, 42, 35, 60, 20, 14, 39, 147, 36, 11, 24, 0)
s = 156: (0, 89, 37, 92, 19, 30, 51, 149, 36, 12, 16, 0)
s = 157: (0, 39, 35, 91, 26, 23, 29, 134, 23, 10, 12, 0)
s = 158: (0, 51, 20, 96, 14, 21, 48, 151, 39, 14, 14, 0)
s = 159: (0, 75, 29, 68, 33, 15, 42, 134, 31, 12, 18, 0)
s = 160: (0, 46, 51, 126, 32, 28, 46, 179, 35, 11, 19, 0)
s = 161: (0, 74, 21, 113, 27, 27, 35, 104, 33, 10, 18, 0)
s = 162: (0, 64, 34, 66, 35, 22, 39, 136, 47, 6, 12, 0)
s = 163: (0, 57, 54, 82, 13, 13, 42, 203, 34, 8, 17, 0)
s = 164: (0, 45, 20, 55, 14, 35, 23, 159, 28, 10, 8, 0)
s = 165: (0, 44, 31, 88, 24, 29, 42, 103, 25, 9, 21, 0)
s = 166: (0, 68, 36, 67, 24, 19, 29, 112, 29, 11, 16, 0)
s = 167: (0, 49, 45, 52, 15, 21, 50, 77, 57, 10, 15, 0)
s = 168: (0, 67, 33, 71, 17, 18, 36, 199, 25, 14, 18, 0)
s = 169: (0, 44, 22, 113, 16, 16, 29, 149, 42, 7, 18, 0)
s = 170: (0, 34, 36, 64, 12, 22, 32, 116, 66, 7, 18, 0)
s = 171: (0, 42, 51, 86, 30, 26, 50, 77, 35, 13, 14, 0)
s = 172: (0, 62, 42, 53, 20, 17, 33, 107, 56, 7, 12, 0)
s = 173: (0, 67, 28, 69, 40, 15, 24, 87, 27, 9, 14, 0)
s = 174: (0, 39, 24, 142, 17, 19, 43, 132, 40, 12, 22, 0)
s = 175: (0, 38, 40, 80, 28, 18, 38, 168, 50, 6, 12, 0)
s = 176: (0, 30, 57, 74, 19, 15, 28, 115, 26, 11, 20, 0)
s = 177: (0, 53, 44, 60, 21, 18, 36, 122, 34, 8, 18, 0)
s = 178: (0, 58, 43, 70, 17, 26, 40, 165, 29, 9, 17, 0)
s = 179: (0, 40, 21, 66, 28, 26, 33, 206, 53, 9, 12, 0)
s = 180: (0, 44, 30, 103, 16, 16, 43, 119, 36, 13, 9, 0)
s = 181: (0, 45, 27, 65, 27, 19, 25, 132, 29, 11, 14, 0)
s = 182: (0, 70, 41, 130, 21, 13, 24, 97, 55, 7, 22, 0)
s = 183: (0, 64, 37, 116, 21, 38, 31, 130, 55, 11, 8, 0)
s = 184: (0, 46, 37, 84, 38, 13, 52, 104, 51, 10, 13, 0)
s = 185: (0, 51, 46, 106, 27, 24, 43, 75, 30, 13, 12, 0)
s = 186: (0, 33, 32, 61, 17, 24, 22, 76, 32, 10, 9, 0)
s = 187: (0, 85, 35, 86, 21, 19, 30, 107, 27, 6, 13, 0)
s = 188: (0, 58, 33, 69, 18, 19, 26, 181, 48, 6, 10, 0)
s = 189: (0, 97, 29, 95, 21, 26, 21, 158, 38, 9, 13, 0)
s = 190: (0, 43, 41, 73, 24, 22, 35, 102, 37, 10, 17, 0)
s = 191: (0, 62, 19, 48, 32, 16, 28, 148, 39, 9, 17, 0)
s = 192: (0, 47, 36, 62, 30, 30, 23, 74, 41, 7, 10, 0)
s = 193: (0, 40, 31, 73, 16, 19, 39, 117, 35, 12, 16, 0)
s = 194: (0, 77, 24, 58, 22, 29, 25, 99, 46, 12, 14, 0)
s = 195: (0, 49, 31, 47, 29, 17, 30, 206, 44, 7, 15, 0)
s = 196: (0, 41, 47, 87, 14, 17, 39, 110, 37, 13, 14, 0)
s = 197: (0, 37, 44, 80, 13, 18, 38, 115, 51, 11, 19, 0)
s = 198: (0, 30, 51, 59, 33, 19, 28, 103, 25, 14, 13, 0)
s = 199: (0, 33, 29, 105, 33, 24, 39, 140, 40, 10, 16, 0)
s = 200: (0, 63, 37, 117, 16, 16, 42, 91, 54, 10, 15, 0)
------------------------------------------------------------------------
RESOURCE k = 2
s = 1: (0, 39, 24, 33, 28, 14, 16, 36, 31, 4, 7, 0)
s = 2: (0, 17, 20, 37, 17, 19, 36, 27, 32, 3, 11, 0)
s = 3: (0, 19, 28, 44, 13, 9, 34, 43, 23, 5, 7, 0)
s = 4: (0, 22, 16, 34, 14, 14, 31, 55, 34, 2, 9, 0)
s = 5: (0, 24, 14, 23, 10, 12, 27, 46, 25, 3, 8, 0)
s = 6: (0, 24, 14, 23, 19, 13, 32, 41, 35, 4, 8, 0)
s = 7: (0, 36, 20, 19, 14, 10, 27, 41, 20, 4, 8, 0)
s = 8: (0, 34, 15, 39, 17, 15, 26, 58, 20, 3, 11, 0)
s = 9: (0, 17, 14, 25, 26, 9, 31, 37, 51, 2, 9, 0)
s = 10: (0, 25, 19, 18, 24, 14, 31, 60, 30, 4, 6, 0)
s = 11: (0, 18, 18, 23, 16, 12, 23, 46, 21, 5, 9, 0)
s = 12: (0, 15, 14, 33, 11, 13, 22, 70, 34, 4, 7, 0)
s = 13: (0, 22, 23, 49, 11, 19, 24, 31, 40, 2, 15, 0)
s = 14: (0, 32, 18, 44, 23, 11, 29, 40, 32, 4, 8, 0)
s = 15: (0, 21, 13, 32, 15, 16, 38, 46, 35, 4, 11, 0)
s = 16: (0, 31, 18, 51, 15, 11, 25, 40, 23, 3, 8, 0)
s = 17: (0, 28, 20, 31, 12, 11, 23, 45, 26, 3, 11, 0)
s = 18: (0, 28, 13, 24, 16, 23, 22, 47, 29, 5, 11, 0)
s = 19: (0, 31, 19, 30, 13, 16, 15, 42, 26, 3, 10, 0)
s = 20: (0, 22, 15, 21, 18, 8, 21, 37, 37, 5, 11, 0)
s = 21: (0, 28, 12, 28, 12, 15, 32, 65, 20, 4, 7, 0)
s = 22: (0, 16, 15, 31, 18, 13, 17, 52, 31, 3, 10, 0)
s = 23: (0, 20, 31, 29, 17, 16, 23, 44, 24, 3, 10, 0)
s = 24: (0, 16, 17, 25, 17, 13, 18, 43, 16, 2, 7, 0)
s = 25: (0, 16, 22, 30, 17, 13, 33, 37, 39, 3, 6, 0)
s = 26: (0, 32, 25, 36, 19, 14, 25, 37, 30, 2, 8, 0)
s = 27: (0, 27, 23, 20, 15, 17, 29, 48, 31, 6, 11, 0)
s = 28: (0, 14, 16, 33, 14, 18, 14, 32, 29, 4, 5, 0)
s = 29: (0, 16, 14, 32, 26, 14, 32, 47, 21, 3, 14, 0)
s = 30: (0, 23, 12, 30, 15, 19, 30, 52, 18, 3, 6, 0)
s = 31: (0, 23, 16, 47, 12, 20, 15, 45, 20, 3, 13, 0)
s = 32: (0, 25, 35, 37, 27, 15, 30, 43, 37, 6, 9, 0)
s = 33: (0, 43, 12, 36, 18, 15, 30, 32, 25, 5, 9, 0)
s = 34: (0, 20, 28, 32, 24, 11, 31, 26, 18, 5, 11, 0)
s = 35: (0, 25, 26, 18, 12, 10, 24, 44, 32, 4, 7, 0)
s = 36: (0, 23, 16, 36, 23, 9, 26, 36, 27, 2, 7, 0)
s = 37: (0, 20, 16, 40, 27, 23, 18, 42, 29, 3, 8, 0)
s = 38: (0, 31, 18, 24, 28, 10, 22, 27, 21, 3, 8, 0)
s = 39: (0, 28, 13, 41, 17, 8, 20, 41, 29, 3, 5, 0)
s = 40: (0, 19, 15, 20, 13, 19, 49, 33, 17, 4, 7, 0)
s = 41: (0, 21, 14, 28, 11, 18, 33, 58, 36, 3, 9, 0)
s = 42: (0, 29, 23, 22, 15, 21, 17, 37, 23, 2, 16, 0)
s = 43: (0, 27, 27, 33, 26, 10, 22, 42, 30, 3, 9, 0)
s = 44: (0, 21, 11, 30, 15, 15, 23, 30, 30, 3, 14, 0)
s = 45: (0, 26, 15, 37, 18, 15, 20, 41, 21, 3, 8, 0)
s = 46: (0, 19, 17, 37, 12, 17, 23, 65, 23, 3, 7, 0)
s = 47: (0, 38, 22, 40, 25, 9, 23, 29, 33, 3, 6, 0)
s = 48: (0, 27, 25, 38, 15, 12, 37, 49, 20, 4, 10, 0)
s = 49: (0, 26, 14, 32, 15, 17, 42, 46, 34, 3, 8, 0)
s = 50: (0, 26, 15, 49, 22, 12, 31, 65, 19, 4, 7, 0)
s = 51: (0, 34, 20, 32, 11, 13, 25, 50, 32, 3, 12, 0)
s = 52: (0, 32, 17, 30, 25, 11, 30, 33, 18, 2, 17, 0)
s = 53: (0, 16, 15, 20, 11, 16, 30, 51, 36, 2, 12, 0)
s = 54: (0, 24, 22, 32, 24, 10, 26, 26, 28, 3, 6, 0)
s = 55: (0, 23, 15, 41, 12, 21, 36, 53, 28, 2, 8, 0)
s = 56: (0, 30, 22, 24, 20, 14, 44, 34, 51, 3, 6, 0)
s = 57: (0, 26, 27, 34, 18, 14, 22, 32, 30, 3, 10, 0)
s = 58: (0, 16, 12, 23, 11, 10, 13, 63, 19, 3, 17, 0)
s = 59: (0, 28, 12, 25, 25, 10, 21, 63, 22, 3, 5, 0)
s = 60: (0, 28, 13, 26, 17, 16, 24, 58, 22, 3, 8, 0)
s = 61: (0, 24, 13, 36, 22, 15, 35, 32, 38, 4, 11, 0)
s = 62: (0, 32, 23, 35, 17, 9, 27, 36, 17, 4, 7, 0)
s = 63: (0, 31, 25, 40, 15, 10, 22, 43, 38, 4, 10, 0)
s = 64: (0, 28, 12, 38, 22, 8, 28, 43, 46, 3, 8, 0)
s = 65: (0, 16, 25, 23, 17, 8, 24, 56, 19, 2, 6, 0)
s = 66: (0, 22, 20, 21, 30, 14, 35, 40, 36, 4, 7, 0)
s = 67: (0, 21, 18, 25, 20, 17, 16, 57, 32, 3, 7, 0)
s = 68: (0, 17, 19, 45, 17, 12, 37, 39, 31, 3, 8, 0)
s = 69: (0, 37, 11, 30, 19, 9, 25, 58, 28, 3, 10, 0)
s = 70: (0, 22, 13, 31, 19, 18, 32, 45, 38, 3, 14, 0)
s = 71: (0, 24, 16, 44, 25, 13, 24, 30, 18, 3, 8, 0)
s = 72: (0, 35, 17, 31, 12, 13, 17, 58, 31, 3, 14, 0)
s = 73: (0, 31, 21, 33, 16, 26, 22, 41, 23, 5, 8, 0)
s = 74: (0, 13, 23, 43, 27, 19, 31, 30, 37, 3, 9, 0)
s = 75: (0, 27, 20, 39, 17, 14, 19, 50, 33, 4, 9, 0)
s = 76: (0, 17, 15, 36, 15, 13, 15, 53, 27, 4, 11, 0)
s = 77: (0, 17, 25, 24, 12, 17, 27, 44, 24, 4, 8, 0)
s = 78: (0, 18, 17, 18, 19, 12, 23, 68, 36, 4, 8, 0)
s = 79: (0, 25, 15, 42, 15, 9, 20, 54, 16, 4, 10, 0)
s = 80: (0, 36, 24, 42, 12, 19, 35, 29, 21, 2, 9, 0)
s = 81: (0, 35, 13, 30, 15, 11, 23, 43, 30, 4, 6, 0)
s = 82: (0, 34, 11, 30, 21, 13, 30, 51, 30, 2, 12, 0)
s = 83: (0, 37, 12, 20, 20, 14, 27, 49, 19, 4, 6, 0)
s = 84: (0, 32, 14, 23, 21, 13, 31, 28, 20, 4, 9, 0)
s = 85: (0, 18, 23, 21, 17, 9, 22, 60, 28, 3, 10, 0)
s = 86: (0, 25, 19, 44, 17, 12, 20, 43, 31, 3, 11, 0)
s = 87: (0, 36, 14, 46, 21, 11, 23, 37, 19, 3, 11, 0)
s = 88: (0, 30, 23, 22, 24, 17, 22, 44, 24, 3, 8, 0)
s = 89: (0, 17, 20, 39, 22, 20, 33, 30, 30, 3, 9, 0)
s = 90: (0, 33, 14, 26, 26, 13, 20, 48, 17, 2, 8, 0)
s = 91: (0, 18, 13, 31, 15, 16, 14, 27, 25, 4, 13, 0)
s = 92: (0, 15, 22, 32, 10, 12, 25, 31, 15, 5, 8, 0)
s = 93: (0, 25, 14, 27, 11, 14, 21, 86, 35, 4, 18, 0)
s = 94: (0, 23, 25, 23, 21, 20, 25, 34, 22, 3, 8, 0)
s = 95: (0, 34, 25, 28, 28, 8, 13, 48, 41, 6, 7, 0)
s = 96: (0, 26, 12, 23, 19, 17, 20, 51, 25, 3, 6, 0)
s = 97: (0, 23, 21, 23, 11, 16, 28, 30, 20, 3, 9, 0)
s = 98: (0, 20, 14, 33, 16, 15, 28, 56, 28, 3, 10, 0)
s = 99: (0, 17, 13, 35, 31, 15, 17, 67, 33, 4, 7, 0)
s = 100: (0, 28, 19, 20, 23, 12, 19, 37, 40, 3, 12, 0)
s = 101: (0, 21, 19, 28, 30, 16, 24, 50, 35, 4, 8, 0)
s = 102: (0, 18, 16, 32, 18, 12, 29, 65, 20, 4, 7, 0)
s = 103: (0, 15, 12, 18, 21, 10, 22, 60, 27, 5, 9, 0)
s = 104: (0, 18, 16, 41, 17, 15, 29, 44, 23, 4, 8, 0)
s = 105: (0, 33, 26, 37, 15, 8, 21, 41, 16, 2, 6, 0)
s = 106: (0, 26, 13, 31, 25, 20, 28, 30, 25, 3, 11, 0)
s = 107: (0, 26, 20, 47, 31, 18, 21, 61, 18, 3, 10, 0)
s = 108: (0, 30, 16, 20, 16, 18, 20, 40, 46, 3, 9, 0)
s = 109: (0, 18, 18, 21, 19, 22, 15, 65, 33, 2, 9, 0)
s = 110: (0, 20, 16, 27, 13, 14, 30, 53, 29, 3, 12, 0)
s = 111: (0, 20, 19, 36, 19, 13, 26, 43, 17, 4, 9, 0)
s = 112: (0, 29, 15, 42, 16, 11, 33, 58, 24, 5, 8, 0)
s = 113: (0, 36, 13, 26, 15, 13, 15, 30, 25, 3, 9, 0)
s = 114: (0, 29, 20, 32, 23, 12, 29, 41, 18, 5, 9, 0)
s = 115: (0, 27, 21, 19, 18, 12, 21, 40, 19, 4, 10, 0)
s = 116: (0, 16, 17, 26, 18, 15, 19, 29, 42, 4, 8, 0)
s = 117: (0, 39, 21, 48, 20, 10, 22, 27, 35, 2, 12, 0)
s = 118: (0, 46, 18, 32, 21, 15, 19, 33, 33, 3, 7, 0)
s = 119: (0, 26, 17, 22, 19, 20, 23, 59, 17, 3, 5, 0)
s = 120: (0, 17, 21, 55, 22, 13, 28, 26, 37, 5, 9, 0)
s = 121: (0, 23, 14, 17, 26, 21, 17, 36, 36, 3, 15, 0)
s = 122: (0, 19, 27, 29, 15, 10, 30, 47, 22, 3, 12, 0)
s = 123: (0, 24, 17, 21, 13, 12, 37, 41, 37, 5, 9, 0)
s = 124: (0, 18, 20, 31, 28, 13, 22, 62, 19, 4, 13, 0)
s = 125: (0, 18, 17, 34, 19, 14, 39, 38, 22, 3, 11, 0)
s = 126: (0, 23, 26, 31, 18, 13, 23, 41, 24, 3, 13, 0)
s = 127: (0, 24, 23, 34, 25, 15, 29, 33, 23, 3, 12, 0)
s = 128: (0, 21, 18, 34, 28, 12, 45, 28, 30, 5, 8, 0)
s = 129: (0, 26, 24, 19, 28, 15, 36, 39, 24, 5, 9, 0)
s = 130: (0, 25, 18, 38, 28, 10, 24, 39, 27, 3, 6, 0)
s = 131: (0, 34, 26, 21, 19, 13, 21, 47, 38, 3, 8, 0)
s = 132: (0, 17, 23, 46, 15, 11, 17, 60, 30, 5, 7, 0)
s = 133: (0, 37, 20, 24, 15, 15, 30, 51, 28, 3, 9, 0)
s = 134: (0, 17, 20, 26, 27, 12, 20, 26, 26, 4, 6, 0)
s = 135: (0, 19, 16, 27, 18, 16, 23, 44, 18, 5, 10, 0)
s = 136: (0, 30, 18, 38, 14, 19, 14, 38, 31, 5, 13, 0)
s = 137: (0, 29, 14, 24, 28, 18, 20, 41, 22, 2, 10, 0)
s = 138: (0, 29, 19, 36, 16, 22, 27, 74, 25, 3, 8, 0)
s = 139: (0, 43, 12, 32, 20, 13, 19, 57, 19, 3, 9, 0)
s = 140: (0, 21, 20, 34, 12, 20, 25, 45, 20, 3, 13, 0)
s = 141: (0, 22, 18, 40, 19, 11, 30, 30, 32, 3, 17, 0)
s = 142: (0, 19, 16, 29, 17, 13, 27, 37, 25, 5, 9, 0)
s = 143: (0, 26, 12, 25, 17, 12, 24, 29, 24, 4, 9, 0)
s = 144: (0, 37, 13, 40, 19, 15, 22, 57, 16, 3, 13, 0)
s = 145: (0, 26, 13, 27, 20, 17, 28, 56, 31, 2, 10, 0)
s = 146: (0, 24, 25, 26, 17, 16, 26, 32, 23, 4, 11, 0)
s = 147: (0, 25, 19, 35, 28, 15, 18, 58, 39, 3, 6, 0)
s = 148: (0, 17, 17, 31, 18, 13, 28, 53, 21, 3, 6, 0)
s = 149: (0, 24, 14, 34, 20, 14, 20, 65, 22, 3, 8, 0)
s = 150: (0, 28, 14, 35, 13, 8, 34, 47, 21, 2, 7, 0)
s = 151: (0, 15, 21, 39, 18, 16, 32, 48, 52, 3, 5, 0)
s = 152: (0, 16, 16, 54, 17, 8, 29, 39, 21, 4, 9, 0)
s = 153: (0, 33, 15, 20, 25, 10, 37, 56, 27, 4, 11, 0)
s = 154: (0, 25, 19, 25, 19, 9, 21, 68, 24, 4, 8, 0)
s = 155: (0, 19, 20, 22, 16, 10, 28, 49, 23, 4, 14, 0)
s = 156: (0, 40, 21, 33, 16, 21, 37, 50, 23, 4, 10, 0)
s = 157: (0, 18, 20, 33, 21, 16, 21, 45, 15, 3, 8, 0)
s = 158: (0, 23, 12, 35, 12, 15, 35, 51, 25, 5, 8, 0)
s = 159: (0, 34, 16, 25, 27, 10, 31, 45, 20, 4, 11, 0)
s = 160: (0, 21, 29, 45, 26, 20, 34, 60, 23, 4, 12, 0)
s = 161: (0, 33, 12, 41, 22, 19, 25, 35, 22, 3, 11, 0)
s = 162: (0, 29, 19, 24, 28, 16, 28, 46, 30, 2, 7, 0)
s = 163: (0, 26, 31, 29, 11, 9, 30, 68, 22, 3, 11, 0)
s = 164: (0, 20, 11, 20, 12, 25, 17, 53, 18, 3, 5, 0)
s = 165: (0, 20, 17, 32, 20, 20, 31, 35, 16, 3, 13, 0)
s = 166: (0, 30, 21, 24, 20, 14, 21, 38, 19, 4, 10, 0)
s = 167: (0, 22, 25, 19, 12, 15, 37, 26, 37, 3, 9, 0)
s = 168: (0, 30, 19, 26, 14, 13, 26, 67, 16, 5, 11, 0)
s = 169: (0, 20, 13, 41, 13, 12, 21, 50, 27, 2, 11, 0)
s = 170: (0, 16, 20, 23, 10, 16, 23, 39, 42, 2, 11, 0)
s = 171: (0, 19, 29, 31, 25, 19, 36, 26, 23, 4, 9, 0)
s = 172: (0, 28, 24, 19, 17, 12, 24, 36, 36, 2, 8, 0)
s = 173: (0, 30, 16, 25, 33, 11, 18, 29, 17, 3, 9, 0)
s = 174: (0, 18, 13, 51, 14, 14, 32, 44, 26, 4, 13, 0)
s = 175: (0, 17, 23, 29, 23, 12, 28, 56, 32, 2, 8, 0)
s = 176: (0, 14, 32, 27, 15, 11, 20, 39, 17, 4, 12, 0)
s = 177: (0, 24, 25, 22, 17, 13, 27, 41, 22, 3, 11, 0)
s = 178: (0, 26, 25, 25, 14, 18, 29, 55, 19, 3, 10, 0)
s = 179: (0, 18, 12, 24, 23, 18, 24, 69, 34, 3, 8, 0)
s = 180: (0, 20, 17, 37, 13, 11, 32, 40, 23, 4, 6, 0)
s = 181: (0, 20, 15, 23, 22, 13, 18, 44, 19, 4, 8, 0)
s = 182: (0, 31, 23, 47, 18, 9, 18, 33, 35, 3, 14, 0)
s = 183: (0, 29, 21, 42, 17, 27, 23, 44, 36, 4, 5, 0)
s = 184: (0, 21, 21, 30, 31, 9, 38, 35, 33, 3, 8, 0)
s = 185: (0, 23, 26, 38, 22, 17, 31, 25, 20, 4, 7, 0)
s = 186: (0, 15, 18, 22, 14, 17, 16, 26, 21, 3, 6, 0)
s = 187: (0, 38, 20, 31, 17, 14, 22, 36, 17, 2, 8, 0)
s = 188: (0, 26, 19, 25, 15, 14, 19, 61, 31, 2, 6, 0)
s = 189: (0, 43, 17, 34, 18, 19, 15, 53, 25, 3, 8, 0)
s = 190: (0, 20, 23, 26, 20, 15, 25, 34, 24, 3, 11, 0)
s = 191: (0, 28, 11, 18, 26, 11, 21, 50, 25, 3, 10, 0)
s = 192: (0, 21, 21, 22, 24, 21, 17, 25, 27, 2, 6, 0)
s = 193: (0, 18, 18, 26, 13, 14, 28, 39, 23, 4, 10, 0)
s = 194: (0, 34, 14, 21, 18, 21, 19, 33, 30, 4, 9, 0)
s = 195: (0, 22, 18, 17, 23, 12, 22, 69, 28, 3, 9, 0)
s = 196: (0, 19, 27, 31, 12, 12, 29, 37, 24, 4, 9, 0)
s = 197: (0, 17, 25, 29, 11, 12, 28, 39, 33, 4, 12, 0)
s = 198: (0, 14, 29, 22, 27, 14, 20, 35, 17, 4, 8, 0)
s = 199: (0, 15, 16, 38, 27, 17, 29, 47, 26, 3, 10, 0)
s = 200: (0, 28, 21, 42, 13, 12, 31, 31, 35, 3, 9, 0)
------------------------------------------------------------------------
RESOURCE k = 3
s = 1: (0, 49, 21, 26, 22, 14, 14, 50, 31, 7, 8, 0)
s = 2: (0, 21, 18, 30, 13, 19, 32, 38, 32, 5, 12, 0)
s = 3: (0, 23, 25, 35, 10, 9, 30, 59, 23, 8, 8, 0)
s = 4: (0, 27, 14, 27, 11, 14, 27, 77, 34, 4, 10, 0)
s = 5: (0, 29, 12, 18, 8, 12, 24, 64, 25, 5, 9, 0)
s = 6: (0, 30, 13, 18, 15, 13, 28, 57, 35, 6, 9, 0)
s = 7: (0, 45, 18, 16, 11, 10, 24, 57, 20, 6, 9, 0)
s = 8: (0, 43, 13, 31, 13, 15, 23, 82, 20, 5, 12, 0)
s = 9: (0, 22, 13, 20, 20, 9, 27, 52, 51, 3, 10, 0)
s = 10: (0, 31, 17, 14, 19, 14, 27, 83, 30, 6, 6, 0)
s = 11: (0, 22, 16, 19, 13, 12, 20, 64, 21, 9, 10, 0)
s = 12: (0, 19, 13, 26, 9, 13, 20, 98, 34, 6, 8, 0)
s = 13: (0, 28, 20, 39, 9, 19, 21, 43, 40, 4, 17, 0)
s = 14: (0, 40, 16, 35, 18, 11, 25, 56, 32, 6, 9, 0)
s = 15: (0, 27, 11, 26, 12, 16, 34, 64, 35, 6, 12, 0)
s = 16: (0, 39, 16, 41, 12, 11, 22, 56, 23, 5, 9, 0)
s = 17: (0, 34, 18, 25, 9, 11, 20, 63, 26, 5, 12, 0)
s = 18: (0, 35, 12, 20, 12, 23, 19, 66, 29, 8, 12, 0)
s = 19: (0, 38, 17, 24, 11, 16, 13, 59, 26, 5, 11, 0)
s = 20: (0, 28, 13, 17, 14, 8, 18, 52, 37, 8, 12, 0)
s = 21: (0, 35, 11, 22, 10, 15, 28, 90, 20, 7, 8, 0)
s = 22: (0, 20, 13, 25, 14, 13, 15, 73, 31, 5, 11, 0)
s = 23: (0, 25, 28, 23, 13, 16, 20, 61, 24, 5, 11, 0)
s = 24: (0, 20, 16, 20, 13, 13, 16, 60, 16, 4, 8, 0)
s = 25: (0, 20, 20, 24, 14, 13, 29, 52, 39, 4, 7, 0)
s = 26: (0, 40, 23, 29, 15, 14, 22, 51, 30, 4, 9, 0)
s = 27: (0, 34, 21, 16, 12, 17, 26, 67, 31, 9, 12, 0)
s = 28: (0, 18, 15, 27, 11, 18, 12, 45, 29, 6, 6, 0)
s = 29: (0, 20, 12, 26, 20, 14, 28, 66, 21, 5, 15, 0)
s = 30: (0, 29, 11, 24, 12, 19, 26, 73, 18, 5, 7, 0)
s = 31: (0, 29, 14, 38, 10, 20, 13, 63, 20, 4, 14, 0)
s = 32: (0, 31, 31, 30, 21, 15, 26, 60, 37, 10, 10, 0)
s = 33: (0, 53, 10, 29, 14, 15, 26, 45, 25, 8, 10, 0)
s = 34: (0, 24, 25, 26, 18, 11, 27, 36, 18, 7, 12, 0)
s = 35: (0, 31, 23, 14, 10, 10, 21, 62, 32, 7, 8, 0)
s = 36: (0, 29, 14, 29, 18, 9, 23, 50, 27, 3, 7, 0)
s = 37: (0, 25, 14, 32, 21, 23, 16, 59, 29, 5, 9, 0)
s = 38: (0, 38, 16, 19, 22, 10, 19, 38, 21, 5, 9, 0)
s = 39: (0, 35, 11, 33, 13, 8, 17, 57, 29, 5, 6, 0)
s = 40: (0, 23, 14, 16, 10, 19, 43, 46, 17, 6, 7, 0)
s = 41: (0, 26, 13, 23, 9, 18, 29, 81, 36, 4, 10, 0)
s = 42: (0, 37, 21, 18, 11, 21, 15, 51, 23, 3, 18, 0)
s = 43: (0, 33, 24, 27, 20, 10, 19, 59, 30, 5, 10, 0)
s = 44: (0, 27, 10, 24, 12, 15, 21, 42, 30, 4, 15, 0)
s = 45: (0, 32, 14, 30, 14, 15, 18, 57, 21, 5, 9, 0)
s = 46: (0, 24, 15, 30, 10, 17, 20, 90, 23, 4, 8, 0)
s = 47: (0, 47, 19, 32, 20, 9, 21, 40, 33, 5, 6, 0)
s = 48: (0, 34, 22, 31, 12, 12, 32, 69, 20, 7, 11, 0)
s = 49: (0, 32, 12, 26, 12, 17, 36, 64, 34, 5, 9, 0)
s = 50: (0, 32, 13, 40, 17, 12, 27, 91, 19, 7, 7, 0)
s = 51: (0, 42, 18, 25, 9, 13, 22, 69, 32, 5, 14, 0)
s = 52: (0, 40, 15, 24, 19, 11, 27, 46, 18, 3, 19, 0)
s = 53: (0, 19, 14, 16, 8, 16, 26, 71, 36, 3, 13, 0)
s = 54: (0, 30, 20, 26, 19, 10, 22, 37, 28, 5, 7, 0)
s = 55: (0, 28, 13, 33, 10, 21, 32, 74, 28, 4, 9, 0)
s = 56: (0, 37, 19, 19, 15, 14, 39, 47, 51, 5, 7, 0)
s = 57: (0, 32, 24, 27, 14, 14, 20, 45, 30, 4, 11, 0)
s = 58: (0, 20, 11, 18, 8, 10, 12, 89, 19, 4, 19, 0)
s = 59: (0, 35, 11, 20, 19, 10, 18, 88, 22, 4, 6, 0)
s = 60: (0, 35, 12, 21, 13, 16, 21, 81, 22, 5, 9, 0)
s = 61: (0, 30, 11, 29, 17, 15, 30, 44, 38, 7, 12, 0)
s = 62: (0, 40, 21, 28, 13, 9, 23, 51, 17, 6, 7, 0)
s = 63: (0, 38, 22, 32, 12, 10, 20, 60, 38, 6, 11, 0)
s = 64: (0, 35, 11, 30, 17, 8, 24, 60, 46, 4, 8, 0)
s = 65: (0, 20, 23, 19, 14, 8, 21, 78, 19, 4, 7, 0)
s = 66: (0, 28, 18, 17, 24, 14, 31, 56, 36, 6, 8, 0)
s = 67: (0, 26, 16, 20, 16, 17, 14, 79, 32, 4, 7, 0)
s = 68: (0, 21, 17, 36, 14, 12, 32, 54, 31, 4, 9, 0)
s = 69: (0, 46, 10, 24, 15, 9, 22, 81, 28, 5, 11, 0)
s = 70: (0, 28, 12, 25, 15, 18, 28, 63, 38, 4, 16, 0)
s = 71: (0, 29, 14, 36, 19, 13, 21, 42, 18, 4, 9, 0)
s = 72: (0, 44, 16, 25, 9, 13, 15, 80, 31, 4, 16, 0)
s = 73: (0, 38, 19, 27, 13, 26, 20, 57, 23, 8, 9, 0)
s = 74: (0, 16, 20, 35, 21, 19, 27, 42, 37, 4, 10, 0)
s = 75: (0, 34, 18, 31, 13, 14, 16, 70, 33, 6, 10, 0)
s = 76: (0, 22, 13, 29, 12, 13, 13, 73, 27, 6, 13, 0)
s = 77: (0, 21, 22, 19, 10, 17, 24, 61, 24, 7, 9, 0)
s = 78: (0, 23, 15, 15, 15, 12, 21, 95, 36, 6, 9, 0)
s = 79: (0, 31, 13, 33, 12, 9, 18, 76, 16, 6, 11, 0)
s = 80: (0, 45, 22, 33, 9, 19, 31, 41, 21, 4, 10, 0)
s = 81: (0, 44, 11, 24, 12, 11, 20, 60, 30, 7, 7, 0)
s = 82: (0, 43, 9, 24, 16, 13, 27, 71, 30, 4, 13, 0)
s = 83: (0, 46, 11, 16, 16, 14, 24, 69, 19, 6, 7, 0)
s = 84: (0, 39, 13, 18, 16, 13, 27, 38, 20, 6, 10, 0)
s = 85: (0, 22, 20, 17, 13, 9, 19, 83, 28, 5, 12, 0)
s = 86: (0, 31, 17, 35, 14, 12, 17, 60, 31, 5, 12, 0)
s = 87: (0, 45, 12, 37, 16, 11, 20, 52, 19, 5, 12, 0)
s = 88: (0, 37, 20, 17, 19, 17, 19, 62, 24, 5, 9, 0)
s = 89: (0, 21, 18, 31, 17, 20, 29, 42, 30, 4, 10, 0)
s = 90: (0, 41, 12, 21, 20, 13, 18, 68, 17, 4, 9, 0)
s = 91: (0, 23, 11, 25, 12, 16, 12, 37, 25, 7, 14, 0)
s = 92: (0, 18, 20, 26, 8, 12, 22, 43, 15, 8, 9, 0)
s = 93: (0, 31, 13, 22, 9, 14, 18, 120, 35, 6, 20, 0)
s = 94: (0, 28, 22, 19, 16, 20, 22, 47, 22, 4, 9, 0)
s = 95: (0, 42, 22, 23, 22, 8, 12, 67, 41, 10, 8, 0)
s = 96: (0, 32, 11, 18, 15, 17, 18, 71, 25, 5, 7, 0)
s = 97: (0, 29, 18, 19, 9, 16, 24, 41, 20, 5, 10, 0)
s = 98: (0, 24, 12, 26, 12, 15, 25, 78, 28, 5, 11, 0)
s = 99: (0, 21, 11, 28, 24, 15, 15, 94, 33, 6, 8, 0)
s = 100: (0, 35, 17, 16, 18, 12, 17, 52, 40, 4, 13, 0)
s = 101: (0, 26, 17, 23, 23, 16, 21, 70, 35, 6, 9, 0)
s = 102: (0, 22, 14, 25, 14, 12, 25, 91, 20, 6, 8, 0)
s = 103: (0, 19, 11, 15, 16, 10, 19, 84, 27, 8, 10, 0)
s = 104: (0, 22, 14, 33, 13, 15, 26, 61, 23, 7, 9, 0)
s = 105: (0, 41, 23, 30, 12, 8, 18, 57, 16, 4, 6, 0)
s = 106: (0, 33, 12, 25, 19, 20, 25, 42, 25, 5, 12, 0)
s = 107: (0, 33, 18, 38, 24, 18, 19, 85, 18, 5, 11, 0)
s = 108: (0, 37, 14, 16, 13, 18, 18, 56, 46, 5, 9, 0)
s = 109: (0, 22, 16, 17, 15, 22, 13, 91, 33, 4, 10, 0)
s = 110: (0, 25, 14, 22, 10, 14, 27, 74, 29, 5, 14, 0)
s = 111: (0, 24, 17, 29, 15, 13, 23, 61, 17, 6, 10, 0)
s = 112: (0, 36, 14, 34, 12, 11, 29, 81, 24, 8, 9, 0)
s = 113: (0, 44, 11, 21, 12, 13, 13, 42, 25, 4, 10, 0)
s = 114: (0, 36, 18, 25, 18, 12, 26, 57, 18, 7, 10, 0)
s = 115: (0, 33, 19, 15, 14, 12, 18, 56, 19, 7, 11, 0)
s = 116: (0, 20, 15, 21, 14, 15, 16, 41, 42, 6, 9, 0)
s = 117: (0, 49, 18, 39, 15, 10, 19, 37, 35, 3, 13, 0)
s = 118: (0, 58, 16, 26, 16, 15, 17, 47, 33, 5, 8, 0)
s = 119: (0, 33, 15, 17, 15, 20, 20, 82, 17, 5, 6, 0)
s = 120: (0, 21, 18, 44, 17, 13, 24, 37, 37, 8, 10, 0)
s = 121: (0, 28, 12, 14, 20, 21, 15, 50, 36, 5, 16, 0)
s = 122: (0, 23, 24, 23, 12, 10, 27, 66, 22, 5, 13, 0)
s = 123: (0, 30, 15, 17, 11, 12, 32, 57, 37, 8, 10, 0)
s = 124: (0, 23, 18, 25, 22, 13, 19, 86, 19, 6, 14, 0)
s = 125: (0, 23, 15, 27, 15, 14, 34, 53, 22, 5, 12, 0)
s = 126: (0, 29, 23, 25, 14, 13, 20, 58, 24, 4, 14, 0)
s = 127: (0, 29, 20, 27, 19, 15, 25, 47, 23, 5, 14, 0)
s = 128: (0, 27, 16, 28, 22, 12, 40, 39, 30, 8, 9, 0)
s = 129: (0, 32, 21, 16, 22, 15, 31, 55, 24, 8, 10, 0)
s = 130: (0, 31, 16, 30, 22, 10, 21, 54, 27, 5, 6, 0)
s = 131: (0, 42, 24, 17, 15, 13, 18, 65, 38, 5, 9, 0)
s = 132: (0, 21, 20, 37, 12, 11, 15, 83, 30, 7, 7, 0)
s = 133: (0, 47, 17, 19, 12, 15, 26, 71, 28, 5, 10, 0)
s = 134: (0, 21, 18, 21, 21, 12, 17, 36, 26, 7, 7, 0)
s = 135: (0, 23, 14, 22, 14, 16, 20, 61, 18, 7, 11, 0)
s = 136: (0, 38, 16, 31, 11, 19, 12, 53, 31, 8, 15, 0)
s = 137: (0, 37, 12, 19, 22, 18, 18, 57, 22, 4, 11, 0)
s = 138: (0, 36, 17, 29, 13, 22, 23, 104, 25, 4, 9, 0)
s = 139: (0, 54, 11, 25, 16, 13, 17, 79, 19, 5, 10, 0)
s = 140: (0, 26, 18, 27, 10, 20, 22, 63, 20, 4, 14, 0)
s = 141: (0, 27, 16, 32, 15, 11, 27, 42, 32, 5, 19, 0)
s = 142: (0, 24, 14, 23, 13, 13, 24, 52, 25, 7, 10, 0)
s = 143: (0, 33, 11, 20, 13, 12, 21, 40, 24, 6, 10, 0)
s = 144: (0, 46, 11, 32, 15, 15, 19, 79, 16, 5, 14, 0)
s = 145: (0, 32, 12, 22, 16, 17, 25, 78, 31, 3, 11, 0)
s = 146: (0, 30, 23, 21, 13, 16, 23, 44, 23, 7, 12, 0)
s = 147: (0, 31, 17, 28, 22, 15, 16, 81, 39, 5, 6, 0)
s = 148: (0, 22, 15, 25, 14, 13, 25, 73, 21, 5, 7, 0)
s = 149: (0, 30, 13, 27, 15, 14, 17, 91, 22, 5, 9, 0)
s = 150: (0, 35, 13, 28, 10, 8, 29, 66, 21, 4, 8, 0)
s = 151: (0, 18, 18, 32, 14, 16, 28, 67, 52, 5, 6, 0)
s = 152: (0, 20, 14, 43, 13, 8, 25, 55, 21, 6, 10, 0)
s = 153: (0, 41, 14, 16, 19, 10, 32, 78, 27, 6, 12, 0)
s = 154: (0, 31, 17, 20, 15, 9, 18, 95, 24, 6, 9, 0)
s = 155: (0, 24, 18, 18, 13, 10, 25, 69, 23, 6, 16, 0)
s = 156: (0, 50, 19, 27, 12, 21, 32, 70, 23, 6, 11, 0)
s = 157: (0, 22, 18, 26, 17, 16, 18, 63, 15, 5, 8, 0)
s = 158: (0, 29, 10, 28, 9, 15, 30, 71, 25, 7, 9, 0)
s = 159: (0, 42, 15, 20, 21, 10, 27, 63, 20, 6, 12, 0)
s = 160: (0, 26, 26, 36, 20, 20, 30, 84, 23, 6, 13, 0)
s = 161: (0, 41, 11, 33, 17, 19, 22, 49, 22, 5, 12, 0)
s = 162: (0, 36, 17, 19, 22, 16, 25, 64, 30, 3, 8, 0)
s = 163: (0, 32, 27, 24, 9, 9, 27, 95, 22, 4, 12, 0)
s = 164: (0, 25, 10, 16, 9, 25, 15, 74, 18, 5, 6, 0)
s = 165: (0, 25, 16, 25, 16, 20, 27, 48, 16, 5, 14, 0)
s = 166: (0, 38, 18, 19, 15, 14, 18, 53, 19, 6, 11, 0)
s = 167: (0, 27, 23, 15, 10, 15, 32, 36, 37, 5, 10, 0)
s = 168: (0, 38, 17, 21, 11, 13, 23, 93, 16, 7, 12, 0)
s = 169: (0, 25, 11, 33, 10, 12, 19, 70, 27, 4, 12, 0)
s = 170: (0, 19, 18, 19, 8, 16, 20, 54, 42, 4, 12, 0)
s = 171: (0, 24, 26, 25, 19, 19, 32, 36, 23, 7, 9, 0)
s = 172: (0, 35, 21, 16, 13, 12, 21, 50, 36, 4, 8, 0)
s = 173: (0, 37, 14, 20, 26, 11, 16, 41, 17, 5, 10, 0)
s = 174: (0, 22, 12, 41, 11, 14, 28, 62, 26, 6, 15, 0)
s = 175: (0, 22, 20, 23, 18, 12, 24, 79, 32, 3, 8, 0)
s = 176: (0, 17, 29, 21, 12, 11, 18, 54, 17, 6, 13, 0)
s = 177: (0, 30, 22, 18, 13, 13, 23, 57, 22, 4, 12, 0)
s = 178: (0, 33, 22, 20, 11, 18, 26, 77, 19, 5, 11, 0)
s = 179: (0, 22, 11, 19, 18, 18, 21, 96, 34, 5, 8, 0)
s = 180: (0, 25, 15, 30, 10, 11, 28, 56, 23, 7, 6, 0)
s = 181: (0, 25, 14, 19, 17, 13, 16, 62, 19, 6, 9, 0)
s = 182: (0, 39, 21, 37, 14, 9, 15, 46, 35, 4, 15, 0)
s = 183: (0, 36, 19, 33, 14, 27, 20, 61, 36, 6, 6, 0)
s = 184: (0, 26, 19, 24, 24, 9, 33, 49, 33, 5, 9, 0)
s = 185: (0, 28, 23, 31, 17, 17, 28, 35, 20, 7, 8, 0)
s = 186: (0, 19, 16, 18, 11, 17, 14, 36, 21, 5, 6, 0)
s = 187: (0, 47, 18, 25, 13, 14, 19, 50, 17, 3, 9, 0)
s = 188: (0, 32, 17, 20, 11, 14, 16, 85, 31, 3, 7, 0)
s = 189: (0, 54, 15, 27, 14, 19, 13, 74, 25, 5, 9, 0)
s = 190: (0, 24, 21, 21, 15, 15, 22, 48, 24, 5, 12, 0)
s = 191: (0, 35, 10, 14, 21, 11, 18, 69, 25, 5, 11, 0)
s = 192: (0, 26, 18, 18, 19, 21, 15, 35, 27, 4, 7, 0)
s = 193: (0, 22, 16, 21, 10, 14, 25, 55, 23, 6, 11, 0)
s = 194: (0, 43, 12, 17, 14, 21, 16, 47, 30, 6, 9, 0)
s = 195: (0, 27, 16, 14, 18, 12, 19, 96, 28, 4, 10, 0)
s = 196: (0, 23, 24, 25, 9, 12, 25, 52, 24, 7, 9, 0)
s = 197: (0, 21, 22, 23, 8, 12, 24, 54, 33, 6, 13, 0)
s = 198: (0, 17, 26, 17, 21, 14, 18, 49, 17, 7, 9, 0)
s = 199: (0, 19, 15, 30, 21, 17, 25, 66, 26, 5, 11, 0)
s = 200: (0, 35, 19, 34, 10, 12, 27, 43, 35, 5, 10, 0)
************************************************************************
ES/LS-VALUES:
jobnr.   ES(i)    LS(i)
------------------------------------------------------------------------
  0        0        0
  1        0       58
  2        0       78
  3        0       56
  4       11       67
  5       14       71
  6       17       75
  7        5       64
  8       11       78
  9       23       82
 10       23       82
 11       25       84
************************************************************************
BIG-M-VALUES:
M1 = 91, M2 = 462
************************************************************************
